c DCNF-Autarky [version 0.0.1]. 
c Copyright (c) 2018-2019 Swansea University. 
c 
c Input QBF/DQBF path: Castellini18//toilet_c_08_01.3.qdimacs
c Output SAT Translation Path: /tmp/toilet_c_08_01.3.qdimacs-dcnfAutarky.dimacs
c Input Clause Count (tautology free): 341
c
c Performing E1-Autarky iteration.
c Remaining clauses count after E-Reduction: 305
c
c Performing A1-Autarky iteration.
c Running Lingeling ... 
c
c Remaining clauses count after A-Reduction: 305
c
c Input Parameter (command line, file): 
c input filename   Castellini18//toilet_c_08_01.3.qdimacs
c output filename  /tmp/toilet_c_08_01.3.qdimacs-dcnfAutarky.dimacs
c autarky level    1
c conformity level 0
c encoding type    2
c no.of var        81
c no.of clauses    341
c no.of taut cls   0
c 
c Output Parameters: 
c remaining no.of clauses  305
c
c filename pn pc autarky ntaut rpa rpe rpcdiff result
c "Castellini18//toilet_c_08_01.3.qdimacs" 81 341 "E1+A1" 0 3 69 36 "RED" 
p cnf 81 305
e 27 28 29 30 31 32 33 34 35 36 37 38 39 40 41 42 43 44 45 46 47 48 49 50 51 52 53 0
a 63 62 64 0
e 1 2 3 4 5 6 7 8 9 10 11 12 13 14 15 16 17 18 19 20 21 22 23 24 25 26 54 55 56 57 58 59 60 61 65 66 67 68 69 70 71 72 73 74 75 76 77 78 79 80 81 0
-62 -63 -65 64 0
-62 -63 -66 64 0
-62 -63 -67 64 0
-62 -63 -68 64 0
-62 -63 -69 64 0
-62 -63 64 70 0
-62 -63 -71 64 0
-62 -63 -72 64 0
-63 -64 -65 62 0
-63 -64 -66 62 0
-63 -64 -67 62 0
-63 -64 -68 62 0
-63 -64 62 69 0
-63 -64 -70 62 0
-63 -64 -71 62 0
-63 -64 -72 62 0
-63 -65 62 64 0
-63 -66 62 64 0
-63 -67 62 64 0
-63 62 64 68 0
-63 -69 62 64 0
-63 -70 62 64 0
-63 -71 62 64 0
-63 -72 62 64 0
-62 -64 -65 63 0
-62 -64 -66 63 0
-62 -64 63 67 0
-62 -64 -68 63 0
-62 -64 -69 63 0
-62 -64 -70 63 0
-62 -64 -71 63 0
-62 -64 -72 63 0
-62 -65 63 64 0
-62 63 64 66 0
-62 -67 63 64 0
-62 -68 63 64 0
-62 -69 63 64 0
-62 -70 63 64 0
-62 -71 63 64 0
-62 -72 63 64 0
-64 62 63 65 0
-64 -66 62 63 0
-64 -67 62 63 0
-64 -68 62 63 0
-64 -69 62 63 0
-64 -70 62 63 0
-64 -71 62 63 0
-64 -72 62 63 0
-65 62 63 64 0
-66 62 63 64 0
-67 62 63 64 0
-68 62 63 64 0
-69 62 63 64 0
-70 62 63 64 0
-71 62 63 64 0
62 63 64 72 0
-62 -63 -64 -65 0
-62 -63 -64 -66 0
-62 -63 -64 -67 0
-62 -63 -64 -68 0
-62 -63 -64 -69 0
-62 -63 -64 -70 0
-62 -63 -64 71 0
-62 -63 -64 -72 0
-73 0
-74 0
-75 0
-76 0
-77 0
-78 0
-79 0
-80 0
-81 0
-27 -81 0
-27 -73 0
-3 -28 0
-1 -28 0
-30 -74 0
-30 -81 0
-6 -31 0
-3 -31 0
-33 -75 0
-33 -81 0
-9 -34 0
-3 -34 0
-36 -76 0
-36 -81 0
-12 -37 0
-3 -37 0
-39 -77 0
-39 -81 0
-15 -40 0
-3 -40 0
-42 -78 0
-42 -81 0
-18 -43 0
-3 -43 0
-45 -79 0
-45 -81 0
-21 -46 0
-3 -46 0
-48 -80 0
-48 -81 0
-24 -50 0
-3 -50 0
-49 81 0
-51 3 0
-27 3 0
-5 -27 0
-27 1 0
-28 4 0
-28 -54 0
-28 2 0
-30 6 0
-8 -30 0
-30 3 0
-31 7 0
-31 -55 0
-31 4 0
-33 9 0
-11 -33 0
-33 3 0
-34 10 0
-34 -56 0
-34 4 0
-36 12 0
-14 -36 0
-36 3 0
-37 13 0
-37 -57 0
-37 4 0
-39 15 0
-17 -39 0
-39 3 0
-40 16 0
-40 -58 0
-40 4 0
-42 18 0
-20 -42 0
-42 3 0
-43 19 0
-43 -59 0
-43 4 0
-45 21 0
-23 -45 0
-45 3 0
-46 22 0
-46 -60 0
-46 4 0
-48 24 0
-26 -48 0
-48 3 0
-50 25 0
-50 -61 0
-50 4 0
-3 -49 0
-4 -51 0
-1 27 73 0
-2 1 28 0
-73 1 0
-1 2 0
-3 27 30 33 36 39 42 45 48 81 0
-4 3 28 31 34 37 40 43 46 50 0
-81 3 49 0
-3 4 51 0
-5 72 0
-54 5 0
-72 5 27 0
-5 28 54 0
-6 30 74 0
-7 6 31 0
-74 6 0
-6 7 0
-8 65 0
-55 8 0
-65 8 30 0
-8 31 55 0
-9 33 75 0
-10 9 34 0
-75 9 0
-9 10 0
-11 66 0
-56 11 0
-66 11 33 0
-11 34 56 0
-12 36 76 0
-13 12 37 0
-76 12 0
-12 13 0
-14 67 0
-57 14 0
-67 14 36 0
-14 37 57 0
-15 39 77 0
-16 15 40 0
-77 15 0
-15 16 0
-17 68 0
-58 17 0
-68 17 39 0
-17 40 58 0
-18 42 78 0
-19 18 43 0
-78 18 0
-18 19 0
-20 69 0
-59 20 0
-69 20 42 0
-20 43 59 0
-21 45 79 0
-22 21 46 0
-79 21 0
-21 22 0
-23 70 0
-60 23 0
-70 23 45 0
-23 46 60 0
-24 48 80 0
-25 24 50 0
-80 24 0
-24 25 0
-26 71 0
-61 26 0
-71 26 48 0
-26 50 61 0
-27 -30 0
-28 -31 0
-27 -33 0
-28 -34 0
-27 -36 0
-28 -37 0
-27 -39 0
-28 -40 0
-27 -42 0
-28 -43 0
-27 -45 0
-28 -46 0
-27 -48 0
-28 -50 0
-27 -49 0
-28 -51 0
-30 -33 0
-31 -34 0
-30 -36 0
-31 -37 0
-30 -39 0
-31 -40 0
-30 -42 0
-31 -43 0
-30 -45 0
-31 -46 0
-30 -48 0
-31 -50 0
-30 -49 0
-31 -51 0
-33 -36 0
-34 -37 0
-33 -39 0
-34 -40 0
-33 -42 0
-34 -43 0
-33 -45 0
-34 -46 0
-33 -48 0
-34 -50 0
-33 -49 0
-34 -51 0
-36 -39 0
-37 -40 0
-36 -42 0
-37 -43 0
-36 -45 0
-37 -46 0
-36 -48 0
-37 -50 0
-36 -49 0
-37 -51 0
-39 -42 0
-40 -43 0
-39 -45 0
-40 -46 0
-39 -48 0
-40 -50 0
-39 -49 0
-40 -51 0
-42 -45 0
-43 -46 0
-42 -48 0
-43 -50 0
-42 -49 0
-43 -51 0
-45 -48 0
-46 -50 0
-45 -49 0
-46 -51 0
-48 -49 0
-50 -51 0
-54 0
-55 0
-56 0
-57 0
-58 0
-59 0
-60 0
-61 0
